NAME : GeneratedInstance
TYPE : TSP
DIMENSION : 5
EDGE_WEIGHT_TYPE : EUC_2D
NODE_COORD_SECTION
1 84.403387 93.115915
2 24.603372 60.398812
3 49.940415 7.341881
4 15.482084 57.499416
5 75.977862 64.890188
EOF
